(set-logic QF_LIA)
(declare-fun x0 () Int)
(declare-fun x1 () Int)
(declare-fun x2 () Int)
(declare-fun x3 () Int)
(declare-fun x4 () Int)
(declare-fun x5 () Int)
(declare-fun x6 () Int)
(declare-fun x7 () Int)
(declare-fun x8 () Int)
(declare-fun x9 () Int)
(declare-fun A0 () Bool)
(declare-fun A1 () Bool)
(declare-fun A2 () Bool)
(declare-fun A4 () Bool)
(declare-fun A6 () Bool)
(declare-fun A7 () Bool)
(declare-fun A8 () Bool)
(declare-fun A9 () Bool)
(assert (let ((.def_0 (* 1 x9))) (let ((.def_1 (< .def_0 (- 1)))) (let ((.def_2 (* 1 x8))) (let ((.def_3 (< .def_2 (- 1)))) (let ((.def_4 (not .def_3))) (let ((.def_5 (or .def_4 .def_1))) (let ((.def_6 (not A7))) (let ((.def_7 (and A6 .def_6))) (let ((.def_8 (not .def_7))) (let ((.def_9 (or .def_8 .def_5))) (let ((.def_10 (* (- 1) x5))) (let ((.def_11 (* (- 1) x9))) (let ((.def_12 (+ .def_11 .def_10))) (let ((.def_13 (< .def_12 1))) (let ((.def_14 (not .def_13))) (let ((.def_15 (or A8 .def_14))) (let ((.def_16 (not .def_15))) (let ((.def_17 (* (- 1) x6))) (let ((.def_18 (< .def_17 (- 1)))) (let ((.def_19 (and .def_18 A7))) (let ((.def_20 (and .def_19 .def_16))) (let ((.def_21 (and .def_20 .def_9))) (let ((.def_22 (not A6))) (let ((.def_23 (or A2 .def_22))) (let ((.def_24 (not A2))) (let ((.def_25 (or A1 .def_24))) (let ((.def_26 (not .def_25))) (let ((.def_27 (and .def_26 .def_23))) (let ((.def_28 (not .def_27))) (let ((.def_29 (* (- 1) x2))) (let ((.def_30 (< .def_29 1))) (let ((.def_31 (not .def_30))) (let ((.def_32 (* 1 x2))) (let ((.def_33 (+ .def_32 .def_11))) (let ((.def_34 (< .def_33 1))) (let ((.def_35 (and .def_34 .def_31))) (let ((.def_36 (* (- 1) x0))) (let ((.def_37 (* (- 1) x4))) (let ((.def_38 (+ .def_37 .def_36))) (let ((.def_39 (< .def_38 1))) (let ((.def_40 (* 1 x1))) (let ((.def_41 (+ .def_40 .def_17))) (let ((.def_42 (< .def_41 (- 1)))) (let ((.def_43 (= .def_42 .def_39))) (let ((.def_44 (not .def_43))) (let ((.def_45 (and .def_44 .def_35))) (let ((.def_46 (or .def_45 .def_28))) (let ((.def_47 (and .def_46 .def_21))) (let ((.def_48 (* 1 x6))) (let ((.def_49 (+ .def_32 .def_48))) (let ((.def_50 (< .def_49 1))) (let ((.def_51 (not .def_50))) (let ((.def_52 (and A0 .def_51))) (let ((.def_53 (* 1 x0))) (let ((.def_54 (< .def_53 (- 1)))) (let ((.def_55 (not A0))) (let ((.def_56 (or .def_55 .def_54))) (let ((.def_57 (not .def_56))) (let ((.def_58 (or .def_57 .def_52))) (let ((.def_59 (* 1 x3))) (let ((.def_60 (< .def_59 (- 1)))) (let ((.def_61 (not .def_60))) (let ((.def_62 (+ .def_59 .def_0))) (let ((.def_63 (< .def_62 1))) (let ((.def_64 (or .def_63 .def_61))) (let ((.def_65 (+ .def_32 .def_53))) (let ((.def_66 (< .def_65 (- 1)))) (let ((.def_67 (not .def_66))) (let ((.def_68 (or .def_67 .def_1))) (let ((.def_69 (or .def_68 .def_64))) (let ((.def_70 (and .def_69 .def_58))) (let ((.def_71 (not A9))) (let ((.def_72 (not A4))) (let ((.def_73 (or .def_72 .def_71))) (let ((.def_74 (< .def_48 1))) (let ((.def_75 (not .def_74))) (let ((.def_76 (and .def_75 A4))) (let ((.def_77 (not .def_76))) (let ((.def_78 (and .def_77 .def_73))) (let ((.def_79 (not .def_78))) (let ((.def_80 (and .def_71 .def_30))) (let ((.def_81 (not .def_80))) (let ((.def_82 (+ .def_37 .def_53))) (let ((.def_83 (< .def_82 (- 1)))) (let ((.def_84 (not .def_83))) (let ((.def_85 (and .def_84 .def_6))) (let ((.def_86 (not .def_85))) (let ((.def_87 (and .def_86 .def_81))) (let ((.def_88 (and .def_87 .def_79))) (let ((.def_89 (not .def_88))) (let ((.def_90 (or .def_89 .def_70))) (let ((.def_91 (not .def_90))) (let ((.def_92 (or .def_91 .def_47))) (let ((.def_93 (not .def_92))) (let ((.def_94 (<= x9 1))) (let ((.def_95 (<= 0 x9))) (let ((.def_96 (<= x8 1))) (let ((.def_97 (<= 0 x8))) (let ((.def_98 (<= x7 1))) (let ((.def_99 (<= 0 x7))) (let ((.def_100 (<= x6 1))) (let ((.def_101 (<= 0 x6))) (let ((.def_102 (<= x5 1))) (let ((.def_103 (<= 0 x5))) (let ((.def_104 (<= x4 1))) (let ((.def_105 (<= 0 x4))) (let ((.def_106 (<= x3 1))) (let ((.def_107 (<= 0 x3))) (let ((.def_108 (<= x2 1))) (let ((.def_109 (<= 0 x2))) (let ((.def_110 (<= x1 1))) (let ((.def_111 (<= 0 x1))) (let ((.def_112 (<= x0 1))) (let ((.def_113 (<= 0 x0))) (let ((.def_114 (and .def_113 .def_112 .def_111 .def_110 .def_109 .def_108 .def_107 .def_106 .def_105 .def_104 .def_103 .def_102 .def_101 .def_100 .def_99 .def_98 .def_97 .def_96 .def_95 .def_94 .def_93))) .def_114))))))))))))))))))))))))))))))))))))))))))))))))))))))))))))))))))))))))))))))))))))))))))))))))))))))))))))))))))))
(check-sat)
